p cnf 12 41
12 -11 -5 0
-12 10 -9 0
12 -8 -6 0
-12 8 -4 0
-12 7 -6 0
-12 7 -5 0
-12 6 1 0
-12 5 -3 0
-11 -9 -7 0
-11 -9 7 0
-11 9 -4 0
-11 9 -3 0
11 -7 -4 0
11 -7 1 0
11 6 -4 0
-11 4 -3 0
-11 4 3 0
-11 3 -1 0
10 9 5 0
10 8 -5 0
10 -7 -1 0
10 6 3 0
10 -5 2 0
-10 4 3 0
10 4 2 0
-9 -7 -3 0
-9 -7 -2 0
-9 -6 3 0
9 -5 -3 0
9 -3 -2 0
-8 -7 -4 0
-8 7 -2 0
-8 6 -4 0
-7 -5 2 0
-7 4 2 0
7 -3 -1 0
7 2 -1 0
-6 4 -3 0
6 -3 2 0
6 2 -1 0
-5 -3 -1 0
